452 15
2 2 2 2 2 2 2 2 2 2 2 2 2 2 2
0  0 0 0 0 0 0 0 0 0 0 0 0 0 0 0  30 2 17 32 47 62 77 92 107 122 137 152 167 182 197 212 227 242 257 272 287 302 317 332 347 362 377 392 407 422 437
26  0 1 0 0 0 0 0 0 0 0 0 0 0 0 0  1 3
67  0 0 0 0 0 0 0 0 0 0 0 0 1 0 0  1 4
72  1 0 0 0 0 0 0 0 0 0 0 0 0 0 0  1 5
74  0 0 0 0 0 0 1 0 0 0 0 0 0 0 0  1 6
13  0 0 0 0 0 0 0 0 0 0 0 0 0 0 1  1 7
43  0 0 0 0 0 0 0 0 1 0 0 0 0 0 0  1 8
30  0 0 0 0 1 0 0 0 0 0 0 0 0 0 0  1 9
19  0 0 0 1 0 0 0 0 0 0 0 0 0 0 0  1 10
23  0 0 0 0 0 0 0 0 0 0 1 0 0 0 0  1 11
85  0 0 0 0 0 0 0 0 0 0 0 1 0 0 0  1 12
98  0 0 0 0 0 1 0 0 0 0 0 0 0 0 0  1 13
43  0 0 0 0 0 0 0 0 0 0 0 0 0 1 0  1 14
38  0 0 1 0 0 0 0 0 0 0 0 0 0 0 0  1 15
8  0 0 0 0 0 0 0 1 0 0 0 0 0 0 0  1 16
75  0 0 0 0 0 0 0 0 0 1 0 0 0 0 0  1 452
42  0 0 0 0 0 0 0 0 0 0 0 0 0 0 1  1 18
39  1 0 0 0 0 0 0 0 0 0 0 0 0 0 0  1 19
55  0 0 0 0 1 0 0 0 0 0 0 0 0 0 0  1 20
46  0 0 0 0 0 0 0 0 0 0 0 0 1 0 0  1 21
19  0 1 0 0 0 0 0 0 0 0 0 0 0 0 0  1 22
93  0 0 0 0 0 0 0 0 1 0 0 0 0 0 0  1 23
80  0 0 0 0 0 0 0 0 0 1 0 0 0 0 0  1 24
26  0 0 0 0 0 1 0 0 0 0 0 0 0 0 0  1 25
7  0 0 0 0 0 0 0 0 0 0 1 0 0 0 0  1 26
50  0 0 0 0 0 0 1 0 0 0 0 0 0 0 0  1 27
57  0 0 0 0 0 0 0 0 0 0 0 1 0 0 0  1 28
73  0 0 0 1 0 0 0 0 0 0 0 0 0 0 0  1 29
9  0 0 1 0 0 0 0 0 0 0 0 0 0 0 0  1 30
61  0 0 0 0 0 0 0 1 0 0 0 0 0 0 0  1 31
72  0 0 0 0 0 0 0 0 0 0 0 0 0 1 0  1 452
96  0 0 0 1 0 0 0 0 0 0 0 0 0 0 0  1 33
99  0 0 0 0 1 0 0 0 0 0 0 0 0 0 0  1 34
34  0 0 0 0 0 0 0 0 0 0 0 0 1 0 0  1 35
60  0 0 0 0 0 0 1 0 0 0 0 0 0 0 0  1 36
43  0 0 0 0 0 0 0 1 0 0 0 0 0 0 0  1 37
7  0 0 0 0 0 0 0 0 0 0 0 0 0 0 1  1 38
12  0 0 0 0 0 0 0 0 0 0 0 0 0 1 0  1 39
11  0 0 0 0 0 0 0 0 1 0 0 0 0 0 0  1 40
70  0 0 0 0 0 0 0 0 0 0 0 1 0 0 0  1 41
43  0 0 0 0 0 0 0 0 0 0 1 0 0 0 0  1 42
91  1 0 0 0 0 0 0 0 0 0 0 0 0 0 0  1 43
68  0 1 0 0 0 0 0 0 0 0 0 0 0 0 0  1 44
11  0 0 0 0 0 0 0 0 0 1 0 0 0 0 0  1 45
68  0 0 0 0 0 1 0 0 0 0 0 0 0 0 0  1 46
72  0 0 1 0 0 0 0 0 0 0 0 0 0 0 0  1 452
63  0 0 0 0 0 0 0 0 0 0 0 0 0 0 1  1 48
45  0 0 0 0 0 0 0 0 0 0 0 1 0 0 0  1 49
49  0 0 0 0 1 0 0 0 0 0 0 0 0 0 0  1 50
74  0 1 0 0 0 0 0 0 0 0 0 0 0 0 0  1 51
27  0 0 0 0 0 0 0 0 1 0 0 0 0 0 0  1 52
30  1 0 0 0 0 0 0 0 0 0 0 0 0 0 0  1 53
72  0 0 0 0 0 0 0 0 0 1 0 0 0 0 0  1 54
9  0 0 0 0 0 0 0 1 0 0 0 0 0 0 0  1 55
99  0 0 0 0 0 0 0 0 0 0 0 0 1 0 0  1 56
60  0 0 0 0 0 0 0 0 0 0 0 0 0 1 0  1 57
69  0 0 0 0 0 1 0 0 0 0 0 0 0 0 0  1 58
69  0 0 0 0 0 0 1 0 0 0 0 0 0 0 0  1 59
84  0 0 1 0 0 0 0 0 0 0 0 0 0 0 0  1 60
40  0 0 0 1 0 0 0 0 0 0 0 0 0 0 0  1 61
59  0 0 0 0 0 0 0 0 0 0 1 0 0 0 0  1 452
91  0 0 1 0 0 0 0 0 0 0 0 0 0 0 0  1 63
75  1 0 0 0 0 0 0 0 0 0 0 0 0 0 0  1 64
98  0 0 0 0 0 0 0 0 0 1 0 0 0 0 0  1 65
17  0 0 0 1 0 0 0 0 0 0 0 0 0 0 0  1 66
72  0 0 0 0 0 0 0 0 0 0 1 0 0 0 0  1 67
31  0 0 0 0 0 0 0 0 0 0 0 0 0 1 0  1 68
9  0 0 0 0 0 0 0 0 0 0 0 1 0 0 0  1 69
98  0 0 0 0 0 0 0 0 0 0 0 0 0 0 1  1 70
50  0 0 0 0 0 0 0 1 0 0 0 0 0 0 0  1 71
37  0 0 0 0 0 1 0 0 0 0 0 0 0 0 0  1 72
8  0 0 0 0 1 0 0 0 0 0 0 0 0 0 0  1 73
65  0 0 0 0 0 0 0 0 1 0 0 0 0 0 0  1 74
90  0 1 0 0 0 0 0 0 0 0 0 0 0 0 0  1 75
91  0 0 0 0 0 0 0 0 0 0 0 0 1 0 0  1 76
71  0 0 0 0 0 0 1 0 0 0 0 0 0 0 0  1 452
35  0 0 0 0 0 0 0 0 0 0 0 1 0 0 0  1 78
80  0 0 0 0 0 0 1 0 0 0 0 0 0 0 0  1 79
39  0 0 0 0 1 0 0 0 0 0 0 0 0 0 0  1 80
62  0 0 0 1 0 0 0 0 0 0 0 0 0 0 0  1 81
74  0 0 0 0 0 0 0 0 0 0 0 0 0 0 1  1 82
72  0 0 0 0 0 1 0 0 0 0 0 0 0 0 0  1 83
35  0 0 0 0 0 0 0 0 0 0 1 0 0 0 0  1 84
25  0 0 0 0 0 0 0 0 0 1 0 0 0 0 0  1 85
49  0 1 0 0 0 0 0 0 0 0 0 0 0 0 0  1 86
52  0 0 0 0 0 0 0 0 1 0 0 0 0 0 0  1 87
63  0 0 0 0 0 0 0 1 0 0 0 0 0 0 0  1 88
90  0 0 1 0 0 0 0 0 0 0 0 0 0 0 0  1 89
21  0 0 0 0 0 0 0 0 0 0 0 0 0 1 0  1 90
47  0 0 0 0 0 0 0 0 0 0 0 0 1 0 0  1 91
38  1 0 0 0 0 0 0 0 0 0 0 0 0 0 0  1 452
19  0 0 0 0 0 0 0 0 0 0 0 0 0 0 1  1 93
57  0 0 0 0 0 0 0 1 0 0 0 0 0 0 0  1 94
24  0 0 0 0 0 0 0 0 0 0 1 0 0 0 0  1 95
91  0 0 0 0 0 0 0 0 0 0 0 0 0 1 0  1 96
50  0 0 0 1 0 0 0 0 0 0 0 0 0 0 0  1 97
5  1 0 0 0 0 0 0 0 0 0 0 0 0 0 0  1 98
49  0 0 0 0 0 0 0 0 0 0 0 1 0 0 0  1 99
18  0 0 0 0 0 0 0 0 0 0 0 0 1 0 0  1 100
58  0 0 0 0 0 0 0 0 0 1 0 0 0 0 0  1 101
24  0 0 0 0 0 1 0 0 0 0 0 0 0 0 0  1 102
52  0 0 0 0 0 0 0 0 1 0 0 0 0 0 0  1 103
88  0 1 0 0 0 0 0 0 0 0 0 0 0 0 0  1 104
68  0 0 1 0 0 0 0 0 0 0 0 0 0 0 0  1 105
20  0 0 0 0 0 0 1 0 0 0 0 0 0 0 0  1 106
53  0 0 0 0 1 0 0 0 0 0 0 0 0 0 0  1 452
77  0 0 0 0 0 0 0 1 0 0 0 0 0 0 0  1 108
72  0 0 0 0 0 0 0 0 0 0 0 0 0 0 1  1 109
35  0 0 0 0 0 1 0 0 0 0 0 0 0 0 0  1 110
90  0 0 0 0 0 0 0 0 0 0 0 1 0 0 0  1 111
68  0 0 0 0 1 0 0 0 0 0 0 0 0 0 0  1 112
18  0 0 0 0 0 0 1 0 0 0 0 0 0 0 0  1 113
9  0 0 0 1 0 0 0 0 0 0 0 0 0 0 0  1 114
33  1 0 0 0 0 0 0 0 0 0 0 0 0 0 0  1 115
60  0 0 0 0 0 0 0 0 1 0 0 0 0 0 0  1 116
18  0 0 0 0 0 0 0 0 0 0 1 0 0 0 0  1 117
10  0 0 0 0 0 0 0 0 0 0 0 0 1 0 0  1 118
60  0 0 0 0 0 0 0 0 0 0 0 0 0 1 0  1 119
38  0 1 0 0 0 0 0 0 0 0 0 0 0 0 0  1 120
99  0 0 1 0 0 0 0 0 0 0 0 0 0 0 0  1 121
15  0 0 0 0 0 0 0 0 0 1 0 0 0 0 0  1 452
6  0 0 0 0 0 0 0 0 0 0 0 0 0 1 0  1 123
86  0 0 0 0 0 0 0 0 1 0 0 0 0 0 0  1 124
40  0 0 1 0 0 0 0 0 0 0 0 0 0 0 0  1 125
79  0 0 0 0 0 0 0 0 0 1 0 0 0 0 0  1 126
92  0 0 0 0 0 0 0 0 0 0 0 0 1 0 0  1 127
23  0 0 0 0 0 0 0 0 0 0 0 1 0 0 0  1 128
89  0 0 0 0 0 1 0 0 0 0 0 0 0 0 0  1 129
95  0 0 0 0 0 0 0 0 0 0 1 0 0 0 0  1 130
91  0 0 0 0 0 0 1 0 0 0 0 0 0 0 0  1 131
72  0 0 0 0 0 0 0 1 0 0 0 0 0 0 0  1 132
80  1 0 0 0 0 0 0 0 0 0 0 0 0 0 0  1 133
60  0 1 0 0 0 0 0 0 0 0 0 0 0 0 0  1 134
56  0 0 0 1 0 0 0 0 0 0 0 0 0 0 0  1 135
51  0 0 0 0 1 0 0 0 0 0 0 0 0 0 0  1 136
23  0 0 0 0 0 0 0 0 0 0 0 0 0 0 1  1 452
46  0 1 0 0 0 0 0 0 0 0 0 0 0 0 0  1 138
28  0 0 0 0 0 0 1 0 0 0 0 0 0 0 0  1 139
34  0 0 0 0 0 1 0 0 0 0 0 0 0 0 0  1 140
77  0 0 0 0 0 0 0 0 0 0 0 1 0 0 0  1 141
47  0 0 0 0 1 0 0 0 0 0 0 0 0 0 0  1 142
10  1 0 0 0 0 0 0 0 0 0 0 0 0 0 0  1 143
49  0 0 0 0 0 0 0 0 0 0 0 0 0 0 1  1 144
77  0 0 0 0 0 0 0 0 1 0 0 0 0 0 0  1 145
48  0 0 0 0 0 0 0 0 0 0 1 0 0 0 0  1 146
24  0 0 0 0 0 0 0 1 0 0 0 0 0 0 0  1 147
8  0 0 0 0 0 0 0 0 0 0 0 0 1 0 0  1 148
72  0 0 1 0 0 0 0 0 0 0 0 0 0 0 0  1 149
55  0 0 0 0 0 0 0 0 0 0 0 0 0 1 0  1 150
29  0 0 0 0 0 0 0 0 0 1 0 0 0 0 0  1 151
40  0 0 0 1 0 0 0 0 0 0 0 0 0 0 0  1 452
22  0 0 0 0 0 0 0 0 0 0 1 0 0 0 0  1 153
89  0 0 0 0 1 0 0 0 0 0 0 0 0 0 0  1 154
79  0 0 0 0 0 0 0 0 0 0 0 0 1 0 0  1 155
7  1 0 0 0 0 0 0 0 0 0 0 0 0 0 0  1 156
15  0 0 0 0 0 0 0 0 0 1 0 0 0 0 0  1 157
6  0 1 0 0 0 0 0 0 0 0 0 0 0 0 0  1 158
30  0 0 0 0 0 0 0 0 0 0 0 1 0 0 0  1 159
38  0 0 0 0 0 0 1 0 0 0 0 0 0 0 0  1 160
11  0 0 0 0 0 1 0 0 0 0 0 0 0 0 0  1 161
52  0 0 0 0 0 0 0 0 1 0 0 0 0 0 0  1 162
20  0 0 0 1 0 0 0 0 0 0 0 0 0 0 0  1 163
5  0 0 0 0 0 0 0 1 0 0 0 0 0 0 0  1 164
9  0 0 0 0 0 0 0 0 0 0 0 0 0 0 1  1 165
20  0 0 1 0 0 0 0 0 0 0 0 0 0 0 0  1 166
28  0 0 0 0 0 0 0 0 0 0 0 0 0 1 0  1 452
73  0 0 0 0 0 1 0 0 0 0 0 0 0 0 0  1 168
56  0 0 0 0 0 0 0 0 0 0 0 0 0 0 1  1 169
37  0 0 1 0 0 0 0 0 0 0 0 0 0 0 0  1 170
22  0 0 0 1 0 0 0 0 0 0 0 0 0 0 0  1 171
25  0 0 0 0 0 0 0 0 0 0 0 0 0 1 0  1 172
58  0 0 0 0 0 0 1 0 0 0 0 0 0 0 0  1 173
8  0 1 0 0 0 0 0 0 0 0 0 0 0 0 0  1 174
93  0 0 0 0 0 0 0 1 0 0 0 0 0 0 0  1 175
88  0 0 0 0 1 0 0 0 0 0 0 0 0 0 0  1 176
17  0 0 0 0 0 0 0 0 1 0 0 0 0 0 0  1 177
9  0 0 0 0 0 0 0 0 0 0 0 0 1 0 0  1 178
69  0 0 0 0 0 0 0 0 0 0 0 1 0 0 0  1 179
71  0 0 0 0 0 0 0 0 0 0 1 0 0 0 0  1 180
85  0 0 0 0 0 0 0 0 0 1 0 0 0 0 0  1 181
55  1 0 0 0 0 0 0 0 0 0 0 0 0 0 0  1 452
85  0 0 0 0 0 0 0 0 0 1 0 0 0 0 0  1 183
58  0 0 0 0 0 0 0 0 0 0 0 0 0 0 1  1 184
46  0 0 0 1 0 0 0 0 0 0 0 0 0 0 0  1 185
64  0 0 0 0 0 0 0 0 1 0 0 0 0 0 0  1 186
49  0 0 1 0 0 0 0 0 0 0 0 0 0 0 0  1 187
37  0 0 0 0 0 0 1 0 0 0 0 0 0 0 0  1 188
33  0 1 0 0 0 0 0 0 0 0 0 0 0 0 0  1 189
30  0 0 0 0 1 0 0 0 0 0 0 0 0 0 0  1 190
26  0 0 0 0 0 1 0 0 0 0 0 0 0 0 0  1 191
20  1 0 0 0 0 0 0 0 0 0 0 0 0 0 0  1 192
74  0 0 0 0 0 0 0 0 0 0 0 0 0 1 0  1 193
77  0 0 0 0 0 0 0 0 0 0 1 0 0 0 0  1 194
99  0 0 0 0 0 0 0 0 0 0 0 0 1 0 0  1 195
56  0 0 0 0 0 0 0 0 0 0 0 1 0 0 0  1 196
21  0 0 0 0 0 0 0 1 0 0 0 0 0 0 0  1 452
17  0 0 0 0 0 0 0 0 0 0 1 0 0 0 0  1 198
24  0 0 0 1 0 0 0 0 0 0 0 0 0 0 0  1 199
89  0 0 0 0 1 0 0 0 0 0 0 0 0 0 0  1 200
15  0 0 0 0 0 1 0 0 0 0 0 0 0 0 0  1 201
60  0 0 0 0 0 0 0 0 0 0 0 1 0 0 0  1 202
42  0 1 0 0 0 0 0 0 0 0 0 0 0 0 0  1 203
98  0 0 0 0 0 0 0 0 1 0 0 0 0 0 0  1 204
64  0 0 1 0 0 0 0 0 0 0 0 0 0 0 0  1 205
92  0 0 0 0 0 0 0 0 0 0 0 0 0 1 0  1 206
63  1 0 0 0 0 0 0 0 0 0 0 0 0 0 0  1 207
52  0 0 0 0 0 0 0 1 0 0 0 0 0 0 0  1 208
54  0 0 0 0 0 0 0 0 0 0 0 0 1 0 0  1 209
75  0 0 0 0 0 0 1 0 0 0 0 0 0 0 0  1 210
23  0 0 0 0 0 0 0 0 0 0 0 0 0 0 1  1 211
38  0 0 0 0 0 0 0 0 0 1 0 0 0 0 0  1 452
8  0 0 0 1 0 0 0 0 0 0 0 0 0 0 0  1 213
17  0 0 0 0 0 1 0 0 0 0 0 0 0 0 0  1 214
56  0 0 0 0 0 0 0 0 0 0 0 1 0 0 0  1 215
93  0 0 0 0 0 0 0 1 0 0 0 0 0 0 0  1 216
26  0 0 0 0 0 0 0 0 0 0 0 0 0 0 1  1 217
62  0 0 0 0 0 0 0 0 0 1 0 0 0 0 0  1 218
7  0 0 0 0 0 0 1 0 0 0 0 0 0 0 0  1 219
88  0 0 0 0 0 0 0 0 0 0 1 0 0 0 0  1 220
97  1 0 0 0 0 0 0 0 0 0 0 0 0 0 0  1 221
7  0 1 0 0 0 0 0 0 0 0 0 0 0 0 0  1 222
43  0 0 1 0 0 0 0 0 0 0 0 0 0 0 0  1 223
29  0 0 0 0 0 0 0 0 1 0 0 0 0 0 0  1 224
35  0 0 0 0 0 0 0 0 0 0 0 0 0 1 0  1 225
87  0 0 0 0 0 0 0 0 0 0 0 0 1 0 0  1 226
57  0 0 0 0 1 0 0 0 0 0 0 0 0 0 0  1 452
26  0 1 0 0 0 0 0 0 0 0 0 0 0 0 0  1 228
67  0 0 0 0 0 0 0 0 0 0 0 0 1 0 0  1 229
72  1 0 0 0 0 0 0 0 0 0 0 0 0 0 0  1 230
74  0 0 0 0 0 0 1 0 0 0 0 0 0 0 0  1 231
13  0 0 0 0 0 0 0 0 0 0 0 0 0 0 1  1 232
43  0 0 0 0 0 0 0 0 1 0 0 0 0 0 0  1 233
30  0 0 0 0 1 0 0 0 0 0 0 0 0 0 0  1 234
19  0 0 0 1 0 0 0 0 0 0 0 0 0 0 0  1 235
23  0 0 0 0 0 0 0 0 0 0 1 0 0 0 0  1 236
85  0 0 0 0 0 0 0 0 0 0 0 1 0 0 0  1 237
98  0 0 0 0 0 1 0 0 0 0 0 0 0 0 0  1 238
43  0 0 0 0 0 0 0 0 0 0 0 0 0 1 0  1 239
38  0 0 1 0 0 0 0 0 0 0 0 0 0 0 0  1 240
8  0 0 0 0 0 0 0 1 0 0 0 0 0 0 0  1 241
75  0 0 0 0 0 0 0 0 0 1 0 0 0 0 0  1 452
42  0 0 0 0 0 0 0 0 0 0 0 0 0 0 1  1 243
39  1 0 0 0 0 0 0 0 0 0 0 0 0 0 0  1 244
55  0 0 0 0 1 0 0 0 0 0 0 0 0 0 0  1 245
46  0 0 0 0 0 0 0 0 0 0 0 0 1 0 0  1 246
19  0 1 0 0 0 0 0 0 0 0 0 0 0 0 0  1 247
93  0 0 0 0 0 0 0 0 1 0 0 0 0 0 0  1 248
80  0 0 0 0 0 0 0 0 0 1 0 0 0 0 0  1 249
26  0 0 0 0 0 1 0 0 0 0 0 0 0 0 0  1 250
7  0 0 0 0 0 0 0 0 0 0 1 0 0 0 0  1 251
50  0 0 0 0 0 0 1 0 0 0 0 0 0 0 0  1 252
57  0 0 0 0 0 0 0 0 0 0 0 1 0 0 0  1 253
73  0 0 0 1 0 0 0 0 0 0 0 0 0 0 0  1 254
9  0 0 1 0 0 0 0 0 0 0 0 0 0 0 0  1 255
61  0 0 0 0 0 0 0 1 0 0 0 0 0 0 0  1 256
72  0 0 0 0 0 0 0 0 0 0 0 0 0 1 0  1 452
96  0 0 0 1 0 0 0 0 0 0 0 0 0 0 0  1 258
99  0 0 0 0 1 0 0 0 0 0 0 0 0 0 0  1 259
34  0 0 0 0 0 0 0 0 0 0 0 0 1 0 0  1 260
60  0 0 0 0 0 0 1 0 0 0 0 0 0 0 0  1 261
43  0 0 0 0 0 0 0 1 0 0 0 0 0 0 0  1 262
7  0 0 0 0 0 0 0 0 0 0 0 0 0 0 1  1 263
12  0 0 0 0 0 0 0 0 0 0 0 0 0 1 0  1 264
11  0 0 0 0 0 0 0 0 1 0 0 0 0 0 0  1 265
70  0 0 0 0 0 0 0 0 0 0 0 1 0 0 0  1 266
43  0 0 0 0 0 0 0 0 0 0 1 0 0 0 0  1 267
91  1 0 0 0 0 0 0 0 0 0 0 0 0 0 0  1 268
68  0 1 0 0 0 0 0 0 0 0 0 0 0 0 0  1 269
11  0 0 0 0 0 0 0 0 0 1 0 0 0 0 0  1 270
68  0 0 0 0 0 1 0 0 0 0 0 0 0 0 0  1 271
72  0 0 1 0 0 0 0 0 0 0 0 0 0 0 0  1 452
63  0 0 0 0 0 0 0 0 0 0 0 0 0 0 1  1 273
45  0 0 0 0 0 0 0 0 0 0 0 1 0 0 0  1 274
49  0 0 0 0 1 0 0 0 0 0 0 0 0 0 0  1 275
74  0 1 0 0 0 0 0 0 0 0 0 0 0 0 0  1 276
27  0 0 0 0 0 0 0 0 1 0 0 0 0 0 0  1 277
30  1 0 0 0 0 0 0 0 0 0 0 0 0 0 0  1 278
72  0 0 0 0 0 0 0 0 0 1 0 0 0 0 0  1 279
9  0 0 0 0 0 0 0 1 0 0 0 0 0 0 0  1 280
99  0 0 0 0 0 0 0 0 0 0 0 0 1 0 0  1 281
60  0 0 0 0 0 0 0 0 0 0 0 0 0 1 0  1 282
69  0 0 0 0 0 1 0 0 0 0 0 0 0 0 0  1 283
69  0 0 0 0 0 0 1 0 0 0 0 0 0 0 0  1 284
84  0 0 1 0 0 0 0 0 0 0 0 0 0 0 0  1 285
40  0 0 0 1 0 0 0 0 0 0 0 0 0 0 0  1 286
59  0 0 0 0 0 0 0 0 0 0 1 0 0 0 0  1 452
91  0 0 1 0 0 0 0 0 0 0 0 0 0 0 0  1 288
75  1 0 0 0 0 0 0 0 0 0 0 0 0 0 0  1 289
98  0 0 0 0 0 0 0 0 0 1 0 0 0 0 0  1 290
17  0 0 0 1 0 0 0 0 0 0 0 0 0 0 0  1 291
72  0 0 0 0 0 0 0 0 0 0 1 0 0 0 0  1 292
31  0 0 0 0 0 0 0 0 0 0 0 0 0 1 0  1 293
9  0 0 0 0 0 0 0 0 0 0 0 1 0 0 0  1 294
98  0 0 0 0 0 0 0 0 0 0 0 0 0 0 1  1 295
50  0 0 0 0 0 0 0 1 0 0 0 0 0 0 0  1 296
37  0 0 0 0 0 1 0 0 0 0 0 0 0 0 0  1 297
8  0 0 0 0 1 0 0 0 0 0 0 0 0 0 0  1 298
65  0 0 0 0 0 0 0 0 1 0 0 0 0 0 0  1 299
90  0 1 0 0 0 0 0 0 0 0 0 0 0 0 0  1 300
91  0 0 0 0 0 0 0 0 0 0 0 0 1 0 0  1 301
71  0 0 0 0 0 0 1 0 0 0 0 0 0 0 0  1 452
35  0 0 0 0 0 0 0 0 0 0 0 1 0 0 0  1 303
80  0 0 0 0 0 0 1 0 0 0 0 0 0 0 0  1 304
39  0 0 0 0 1 0 0 0 0 0 0 0 0 0 0  1 305
62  0 0 0 1 0 0 0 0 0 0 0 0 0 0 0  1 306
74  0 0 0 0 0 0 0 0 0 0 0 0 0 0 1  1 307
72  0 0 0 0 0 1 0 0 0 0 0 0 0 0 0  1 308
35  0 0 0 0 0 0 0 0 0 0 1 0 0 0 0  1 309
25  0 0 0 0 0 0 0 0 0 1 0 0 0 0 0  1 310
49  0 1 0 0 0 0 0 0 0 0 0 0 0 0 0  1 311
52  0 0 0 0 0 0 0 0 1 0 0 0 0 0 0  1 312
63  0 0 0 0 0 0 0 1 0 0 0 0 0 0 0  1 313
90  0 0 1 0 0 0 0 0 0 0 0 0 0 0 0  1 314
21  0 0 0 0 0 0 0 0 0 0 0 0 0 1 0  1 315
47  0 0 0 0 0 0 0 0 0 0 0 0 1 0 0  1 316
38  1 0 0 0 0 0 0 0 0 0 0 0 0 0 0  1 452
19  0 0 0 0 0 0 0 0 0 0 0 0 0 0 1  1 318
57  0 0 0 0 0 0 0 1 0 0 0 0 0 0 0  1 319
24  0 0 0 0 0 0 0 0 0 0 1 0 0 0 0  1 320
91  0 0 0 0 0 0 0 0 0 0 0 0 0 1 0  1 321
50  0 0 0 1 0 0 0 0 0 0 0 0 0 0 0  1 322
5  1 0 0 0 0 0 0 0 0 0 0 0 0 0 0  1 323
49  0 0 0 0 0 0 0 0 0 0 0 1 0 0 0  1 324
18  0 0 0 0 0 0 0 0 0 0 0 0 1 0 0  1 325
58  0 0 0 0 0 0 0 0 0 1 0 0 0 0 0  1 326
24  0 0 0 0 0 1 0 0 0 0 0 0 0 0 0  1 327
52  0 0 0 0 0 0 0 0 1 0 0 0 0 0 0  1 328
88  0 1 0 0 0 0 0 0 0 0 0 0 0 0 0  1 329
68  0 0 1 0 0 0 0 0 0 0 0 0 0 0 0  1 330
20  0 0 0 0 0 0 1 0 0 0 0 0 0 0 0  1 331
53  0 0 0 0 1 0 0 0 0 0 0 0 0 0 0  1 452
77  0 0 0 0 0 0 0 1 0 0 0 0 0 0 0  1 333
72  0 0 0 0 0 0 0 0 0 0 0 0 0 0 1  1 334
35  0 0 0 0 0 1 0 0 0 0 0 0 0 0 0  1 335
90  0 0 0 0 0 0 0 0 0 0 0 1 0 0 0  1 336
68  0 0 0 0 1 0 0 0 0 0 0 0 0 0 0  1 337
18  0 0 0 0 0 0 1 0 0 0 0 0 0 0 0  1 338
9  0 0 0 1 0 0 0 0 0 0 0 0 0 0 0  1 339
33  1 0 0 0 0 0 0 0 0 0 0 0 0 0 0  1 340
60  0 0 0 0 0 0 0 0 1 0 0 0 0 0 0  1 341
18  0 0 0 0 0 0 0 0 0 0 1 0 0 0 0  1 342
10  0 0 0 0 0 0 0 0 0 0 0 0 1 0 0  1 343
60  0 0 0 0 0 0 0 0 0 0 0 0 0 1 0  1 344
38  0 1 0 0 0 0 0 0 0 0 0 0 0 0 0  1 345
99  0 0 1 0 0 0 0 0 0 0 0 0 0 0 0  1 346
15  0 0 0 0 0 0 0 0 0 1 0 0 0 0 0  1 452
6  0 0 0 0 0 0 0 0 0 0 0 0 0 1 0  1 348
86  0 0 0 0 0 0 0 0 1 0 0 0 0 0 0  1 349
40  0 0 1 0 0 0 0 0 0 0 0 0 0 0 0  1 350
79  0 0 0 0 0 0 0 0 0 1 0 0 0 0 0  1 351
92  0 0 0 0 0 0 0 0 0 0 0 0 1 0 0  1 352
23  0 0 0 0 0 0 0 0 0 0 0 1 0 0 0  1 353
89  0 0 0 0 0 1 0 0 0 0 0 0 0 0 0  1 354
95  0 0 0 0 0 0 0 0 0 0 1 0 0 0 0  1 355
91  0 0 0 0 0 0 1 0 0 0 0 0 0 0 0  1 356
72  0 0 0 0 0 0 0 1 0 0 0 0 0 0 0  1 357
80  1 0 0 0 0 0 0 0 0 0 0 0 0 0 0  1 358
60  0 1 0 0 0 0 0 0 0 0 0 0 0 0 0  1 359
56  0 0 0 1 0 0 0 0 0 0 0 0 0 0 0  1 360
51  0 0 0 0 1 0 0 0 0 0 0 0 0 0 0  1 361
23  0 0 0 0 0 0 0 0 0 0 0 0 0 0 1  1 452
46  0 1 0 0 0 0 0 0 0 0 0 0 0 0 0  1 363
28  0 0 0 0 0 0 1 0 0 0 0 0 0 0 0  1 364
34  0 0 0 0 0 1 0 0 0 0 0 0 0 0 0  1 365
77  0 0 0 0 0 0 0 0 0 0 0 1 0 0 0  1 366
47  0 0 0 0 1 0 0 0 0 0 0 0 0 0 0  1 367
10  1 0 0 0 0 0 0 0 0 0 0 0 0 0 0  1 368
49  0 0 0 0 0 0 0 0 0 0 0 0 0 0 1  1 369
77  0 0 0 0 0 0 0 0 1 0 0 0 0 0 0  1 370
48  0 0 0 0 0 0 0 0 0 0 1 0 0 0 0  1 371
24  0 0 0 0 0 0 0 1 0 0 0 0 0 0 0  1 372
8  0 0 0 0 0 0 0 0 0 0 0 0 1 0 0  1 373
72  0 0 1 0 0 0 0 0 0 0 0 0 0 0 0  1 374
55  0 0 0 0 0 0 0 0 0 0 0 0 0 1 0  1 375
29  0 0 0 0 0 0 0 0 0 1 0 0 0 0 0  1 376
40  0 0 0 1 0 0 0 0 0 0 0 0 0 0 0  1 452
22  0 0 0 0 0 0 0 0 0 0 1 0 0 0 0  1 378
89  0 0 0 0 1 0 0 0 0 0 0 0 0 0 0  1 379
79  0 0 0 0 0 0 0 0 0 0 0 0 1 0 0  1 380
7  1 0 0 0 0 0 0 0 0 0 0 0 0 0 0  1 381
15  0 0 0 0 0 0 0 0 0 1 0 0 0 0 0  1 382
6  0 1 0 0 0 0 0 0 0 0 0 0 0 0 0  1 383
30  0 0 0 0 0 0 0 0 0 0 0 1 0 0 0  1 384
38  0 0 0 0 0 0 1 0 0 0 0 0 0 0 0  1 385
11  0 0 0 0 0 1 0 0 0 0 0 0 0 0 0  1 386
52  0 0 0 0 0 0 0 0 1 0 0 0 0 0 0  1 387
20  0 0 0 1 0 0 0 0 0 0 0 0 0 0 0  1 388
5  0 0 0 0 0 0 0 1 0 0 0 0 0 0 0  1 389
9  0 0 0 0 0 0 0 0 0 0 0 0 0 0 1  1 390
20  0 0 1 0 0 0 0 0 0 0 0 0 0 0 0  1 391
28  0 0 0 0 0 0 0 0 0 0 0 0 0 1 0  1 452
73  0 0 0 0 0 1 0 0 0 0 0 0 0 0 0  1 393
56  0 0 0 0 0 0 0 0 0 0 0 0 0 0 1  1 394
37  0 0 1 0 0 0 0 0 0 0 0 0 0 0 0  1 395
22  0 0 0 1 0 0 0 0 0 0 0 0 0 0 0  1 396
25  0 0 0 0 0 0 0 0 0 0 0 0 0 1 0  1 397
58  0 0 0 0 0 0 1 0 0 0 0 0 0 0 0  1 398
8  0 1 0 0 0 0 0 0 0 0 0 0 0 0 0  1 399
93  0 0 0 0 0 0 0 1 0 0 0 0 0 0 0  1 400
88  0 0 0 0 1 0 0 0 0 0 0 0 0 0 0  1 401
17  0 0 0 0 0 0 0 0 1 0 0 0 0 0 0  1 402
9  0 0 0 0 0 0 0 0 0 0 0 0 1 0 0  1 403
69  0 0 0 0 0 0 0 0 0 0 0 1 0 0 0  1 404
71  0 0 0 0 0 0 0 0 0 0 1 0 0 0 0  1 405
85  0 0 0 0 0 0 0 0 0 1 0 0 0 0 0  1 406
55  1 0 0 0 0 0 0 0 0 0 0 0 0 0 0  1 452
85  0 0 0 0 0 0 0 0 0 1 0 0 0 0 0  1 408
58  0 0 0 0 0 0 0 0 0 0 0 0 0 0 1  1 409
46  0 0 0 1 0 0 0 0 0 0 0 0 0 0 0  1 410
64  0 0 0 0 0 0 0 0 1 0 0 0 0 0 0  1 411
49  0 0 1 0 0 0 0 0 0 0 0 0 0 0 0  1 412
37  0 0 0 0 0 0 1 0 0 0 0 0 0 0 0  1 413
33  0 1 0 0 0 0 0 0 0 0 0 0 0 0 0  1 414
30  0 0 0 0 1 0 0 0 0 0 0 0 0 0 0  1 415
26  0 0 0 0 0 1 0 0 0 0 0 0 0 0 0  1 416
20  1 0 0 0 0 0 0 0 0 0 0 0 0 0 0  1 417
74  0 0 0 0 0 0 0 0 0 0 0 0 0 1 0  1 418
77  0 0 0 0 0 0 0 0 0 0 1 0 0 0 0  1 419
99  0 0 0 0 0 0 0 0 0 0 0 0 1 0 0  1 420
56  0 0 0 0 0 0 0 0 0 0 0 1 0 0 0  1 421
21  0 0 0 0 0 0 0 1 0 0 0 0 0 0 0  1 452
17  0 0 0 0 0 0 0 0 0 0 1 0 0 0 0  1 423
24  0 0 0 1 0 0 0 0 0 0 0 0 0 0 0  1 424
89  0 0 0 0 1 0 0 0 0 0 0 0 0 0 0  1 425
15  0 0 0 0 0 1 0 0 0 0 0 0 0 0 0  1 426
60  0 0 0 0 0 0 0 0 0 0 0 1 0 0 0  1 427
42  0 1 0 0 0 0 0 0 0 0 0 0 0 0 0  1 428
98  0 0 0 0 0 0 0 0 1 0 0 0 0 0 0  1 429
64  0 0 1 0 0 0 0 0 0 0 0 0 0 0 0  1 430
92  0 0 0 0 0 0 0 0 0 0 0 0 0 1 0  1 431
63  1 0 0 0 0 0 0 0 0 0 0 0 0 0 0  1 432
52  0 0 0 0 0 0 0 1 0 0 0 0 0 0 0  1 433
54  0 0 0 0 0 0 0 0 0 0 0 0 1 0 0  1 434
75  0 0 0 0 0 0 1 0 0 0 0 0 0 0 0  1 435
23  0 0 0 0 0 0 0 0 0 0 0 0 0 0 1  1 436
38  0 0 0 0 0 0 0 0 0 1 0 0 0 0 0  1 452
8  0 0 0 1 0 0 0 0 0 0 0 0 0 0 0  1 438
17  0 0 0 0 0 1 0 0 0 0 0 0 0 0 0  1 439
56  0 0 0 0 0 0 0 0 0 0 0 1 0 0 0  1 440
93  0 0 0 0 0 0 0 1 0 0 0 0 0 0 0  1 441
26  0 0 0 0 0 0 0 0 0 0 0 0 0 0 1  1 442
62  0 0 0 0 0 0 0 0 0 1 0 0 0 0 0  1 443
7  0 0 0 0 0 0 1 0 0 0 0 0 0 0 0  1 444
88  0 0 0 0 0 0 0 0 0 0 1 0 0 0 0  1 445
97  1 0 0 0 0 0 0 0 0 0 0 0 0 0 0  1 446
7  0 1 0 0 0 0 0 0 0 0 0 0 0 0 0  1 447
43  0 0 1 0 0 0 0 0 0 0 0 0 0 0 0  1 448
29  0 0 0 0 0 0 0 0 1 0 0 0 0 0 0  1 449
35  0 0 0 0 0 0 0 0 0 0 0 0 0 1 0  1 450
87  0 0 0 0 0 0 0 0 0 0 0 0 1 0 0  1 451
57  0 0 0 0 1 0 0 0 0 0 0 0 0 0 0  1 452
0  0 0 0 0 0 0 0 0 0 0 0 0 0 0 0  0
